StudentsNr = 10;
InstructorsNr = 24;
DaysNr = 2;
SlotsPerDay = 20;
AvailabilitySlotsLenght = 5;
RoomNr = 1;
ProgrammNr = 1;
DegreeNr = 1;
RolesNr = 2;
CoursesNr = 5;
InstructorsProgramm = [{1}, {1}, {1}, {1}, {1}, {1}, {1}, {1}, {1}, {1}, {1}, {1}, {1}, {1}, {1}, {1}, {1}, {1}, {1}, {1}, {1}, {1}, {1}, {1}];
InstructorRolesPerProgramm = [|{1, 4, 5, 8, 9, 10, 11, 12, 13, 14, 15, 16, 18, 20, 24}, {2, 3, 5, 6, 8, 13, 16, 18, 20, 23}|];
InstructorsAvailability = [|0, 1, 1, 0, 0, 1, 1, 1, |1, 0, 1, 1, 1, 1, 1, 1, |0, 1, 1, 1, 1, 1, 1, 1, |1, 1, 1, 0, 0, 0, 1, 1, |1, 1, 1, 1, 1, 1, 1, 1, |1, 1, 1, 1, 0, 1, 0, 1, |1, 1, 1, 1, 1, 1, 1, 1, |0, 1, 1, 1, 0, 0, 0, 0, |1, 0, 1, 1, 1, 1, 1, 1, |1, 1, 1, 1, 1, 1, 1, 0, |1, 1, 1, 0, 0, 0, 0, 1, |1, 0, 1, 0, 1, 0, 1, 1, |0, 1, 1, 1, 1, 1, 1, 0, |0, 0, 0, 0, 0, 0, 0, 1, |0, 1, 0, 1, 1, 1, 1, 1, |1, 1, 1, 1, 1, 1, 1, 1, |0, 0, 0, 0, 1, 1, 0, 0, |1, 1, 1, 0, 1, 1, 1, 0, |0, 0, 1, 1, 1, 1, 1, 1, |1, 1, 1, 1, 1, 1, 1, 1, |1, 0, 0, 1, 1, 1, 1, 0, |1, 1, 1, 0, 0, 1, 1, 1, |1, 0, 1, 1, 1, 1, 1, 1, |0, 0, 0, 0, 1, 1, 1, 1|];
StudentsProgramm = [1, 1, 1, 1, 1, 1, 1, 1, 1, 1];
StudentsDegree = [1, 1, 1, 1, 1, 1, 1, 1, 1, 1];
StudentsSupervisorId = [12, 5, 13, 23, 16, 8, 2, 17, 9, 8];
StudentsCourseIds = [{4}, {5}, {2}, {4}, {5}, {5}, {2}, {5}, {3}, {4}];
StudentsAvailability = [|0, 1, 1, 1, 1, 1, 1, 1, |0, 1, 1, 1, 1, 1, 1, 1, |0, 1, 1, 1, 0, 1, 1, 1, |0, 0, 0, 0, 1, 0, 1, 1, |1, 1, 1, 0, 1, 1, 0, 0, |1, 1, 1, 1, 1, 1, 1, 0, |0, 0, 1, 1, 1, 1, 0, 0, |1, 1, 1, 1, 1, 1, 1, 1, |0, 0, 0, 1, 1, 1, 1, 1, |1, 1, 1, 1, 1, 1, 1, 1|];
TheoryticalMinCard = [0, 0, 0, 0, 0, 0, 0, 1, 0, 0];
CoursesInstructorIds = [{2, 3, 6, 7, 8, 10, 11, 13, 14, 20, 22, 23}, {1, 5, 6, 14, 15, 22}, {3, 4, 5, 20, 21, 24}, {2, 5, 7, 10, 15, 20}, {1, 2, 5, 9, 12, 14, 16, 19, 20, 22, 23}];
RolesDemands = [1, 10];
RolesContinuity = [];
ExamLen = [1, 1, 1, 1, 1, 1, 1, 1, 1, 1];
LunchTsMinLen = 0;
LunchStarts = [10..12, 27..35];
SupervisorAvailable = 5;
OptimalLunchLenght = [2, 0];
OptimalStartTs = [2, 0];
OptimalFinishTs = [0, 20];
MinimizeRooms = 100;
RolesSoftContinuity = [|1, 2|1, 2|];
SameDegreeInRoom = 20;
Mergeability = 1;
